objective value:                                   50
Z_0                                                 1 	(obj:0)
A_03                                                1 	(obj:38)
Y_1                                                 1 	(obj:0)
Y_2                                                 1 	(obj:0)
Z_3                                                 1 	(obj:0)
A_34                                                1 	(obj:12)
